c File: instances/22_0.25_1.col
c
c Description: Random graph of size 22 vertices and P(0.25) of edges between any two vertices.
p col 22 231
e 1 6
e 1 7
e 1 12
e 1 17
e 1 19
e 2 3
e 2 5
e 2 12
e 2 15
e 2 17
e 2 19
e 2 22
e 3 4
e 3 8
e 3 9
e 3 17
e 3 21
e 4 5
e 4 9
e 4 11
e 4 13
e 4 19
e 4 22
e 5 6
e 5 9
e 5 12
e 5 15
e 5 19
e 5 21
e 6 8
e 6 9
e 6 10
e 6 16
e 6 17
e 6 19
e 6 21
e 7 9
e 7 13
e 7 14
e 8 17
e 9 10
e 9 21
e 10 15
e 10 19
e 11 12
e 11 13
e 11 15
e 11 18
e 11 20
e 11 21
e 12 18
e 13 14
e 13 16
e 13 17
e 13 18
e 13 19
e 13 22
e 14 15
e 15 16
e 15 18
e 15 20
e 15 22
e 18 21
e 18 22
e 19 22
e 20 22